************************************************************************
file with basedata            : mm6_.bas
initial value random generator: 21996
************************************************************************
projects                      :  1
jobs (incl. supersource/sink ):  12
horizon                       :  83
RESOURCES
  - renewable                 :  2   R
  - nonrenewable              :  2   N
  - doubly constrained        :  0   D
************************************************************************
PROJECT INFORMATION:
pronr.  #jobs rel.date duedate tardcost  MPM-Time
    1     10      0       16        2       16
************************************************************************
PRECEDENCE RELATIONS:
jobnr.    #modes  #successors   successors
   0        1          3           1   2   3
   1        3          1           8
   2        3          3           4   5   7
   3        3          2           6   7
   4        3          1          10
   5        3          1           6
   6        3          3           8   9  10
   7        3          1           9
   8        3          1          11
   9        3          1          11
  10        3          1          11
  11        1          0        
************************************************************************
REQUESTS/DURATIONS:
jobnr. mode duration  R 1  R 2  R 3  R 4  E(W 1)
------------------------------------------------------------------------
  0      1     0       0    0    0    0     0
  1      1     4       9    0    5    9    92
  2      1     1       3    0    9    1    14
  3      1     3       0    3    3    6    36
  4      1     1       0    9   10    6    25
  5      1     3       2    0    6   10    54
  6      1     4       0    4    5    3    48
  7      1     1       0    9    8    7    24
  8      1     1       5    0    8    9    22
  9      1     2       3    0    6    5    28
 10      1     8       6    0    8    7    168
 11      1     0       0    0    0    0     0
************************************************************************
RESOURCEAVAILABILITIES:
  R 1
   132
************************************************************************
RESOURCE LIMITS:
jobnr.  l(R 1)  u(R 1)
------------------------------------------------------------------------
  0        0       0
  1       13      23
  2        8      14
  3        7      12
  4       13      25
  5        9      18
  6        7      12
  7       13      24
  8       12      22
  9        8      14
 10       11      21
 11        0       0
************************************************************************
SCENARIOS:
------------------------------------------------------------------------
RESOURCE k = 1
s = 1: (0, 111, 20, 40, 44, 56, 39, 19, 19, 35, 118, 0)
s = 2: (0, 97, 10, 23, 16, 50, 28, 28, 25, 22, 219, 0)
s = 3: (0, 107, 13, 43, 28, 43, 33, 17, 18, 25, 100, 0)
s = 4: (0, 68, 13, 30, 31, 52, 43, 36, 12, 16, 109, 0)
s = 5: (0, 100, 17, 51, 21, 81, 84, 29, 17, 18, 177, 0)
s = 6: (0, 126, 14, 29, 30, 43, 43, 35, 30, 27, 189, 0)
s = 7: (0, 65, 19, 47, 32, 30, 97, 14, 31, 30, 179, 0)
s = 8: (0, 69, 18, 32, 38, 72, 57, 36, 23, 37, 256, 0)
s = 9: (0, 105, 8, 53, 26, 36, 69, 20, 24, 21, 155, 0)
s = 10: (0, 75, 24, 26, 17, 48, 65, 17, 24, 17, 117, 0)
s = 11: (0, 75, 11, 38, 29, 37, 53, 22, 26, 23, 121, 0)
s = 12: (0, 58, 12, 46, 31, 42, 57, 32, 22, 30, 130, 0)
s = 13: (0, 69, 16, 45, 26, 66, 54, 25, 19, 34, 203, 0)
s = 14: (0, 86, 14, 43, 24, 76, 40, 22, 23, 18, 180, 0)
s = 15: (0, 63, 12, 38, 17, 50, 54, 15, 23, 28, 145, 0)
s = 16: (0, 66, 16, 45, 36, 33, 36, 22, 31, 24, 122, 0)
s = 17: (0, 65, 18, 37, 23, 59, 30, 30, 15, 28, 218, 0)
s = 18: (0, 84, 17, 25, 33, 58, 40, 33, 37, 31, 188, 0)
s = 19: (0, 66, 12, 49, 33, 66, 37, 35, 23, 35, 202, 0)
s = 20: (0, 100, 10, 39, 30, 51, 44, 21, 19, 29, 242, 0)
s = 21: (0, 82, 9, 31, 33, 66, 50, 29, 24, 36, 144, 0)
s = 22: (0, 93, 12, 33, 25, 71, 57, 37, 21, 33, 119, 0)
s = 23: (0, 74, 10, 29, 33, 49, 48, 15, 21, 27, 231, 0)
s = 24: (0, 100, 17, 42, 26, 73, 60, 23, 25, 19, 111, 0)
s = 25: (0, 66, 17, 43, 22, 62, 41, 18, 27, 31, 132, 0)
s = 26: (0, 166, 20, 35, 19, 50, 52, 27, 30, 28, 231, 0)
s = 27: (0, 50, 9, 50, 28, 59, 64, 25, 22, 16, 157, 0)
s = 28: (0, 137, 24, 36, 29, 46, 48, 13, 27, 28, 105, 0)
s = 29: (0, 89, 20, 30, 31, 53, 69, 17, 20, 42, 208, 0)
s = 30: (0, 80, 17, 34, 29, 76, 31, 19, 23, 29, 183, 0)
s = 31: (0, 80, 16, 31, 18, 40, 42, 31, 20, 21, 147, 0)
s = 32: (0, 141, 21, 39, 17, 32, 47, 20, 25, 35, 187, 0)
s = 33: (0, 86, 10, 31, 15, 44, 61, 29, 24, 22, 275, 0)
s = 34: (0, 91, 8, 40, 25, 50, 51, 17, 32, 27, 186, 0)
s = 35: (0, 73, 12, 60, 17, 40, 57, 25, 23, 39, 284, 0)
s = 36: (0, 77, 15, 46, 27, 87, 34, 19, 30, 46, 140, 0)
s = 37: (0, 74, 11, 28, 19, 57, 50, 18, 39, 50, 98, 0)
s = 38: (0, 49, 13, 46, 24, 47, 37, 18, 26, 32, 168, 0)
s = 39: (0, 68, 13, 30, 22, 62, 68, 27, 17, 37, 223, 0)
s = 40: (0, 63, 15, 24, 41, 72, 46, 21, 22, 45, 266, 0)
s = 41: (0, 81, 17, 39, 16, 60, 59, 28, 24, 39, 241, 0)
s = 42: (0, 130, 9, 24, 22, 42, 29, 30, 17, 21, 300, 0)
s = 43: (0, 80, 14, 24, 22, 41, 47, 31, 19, 18, 179, 0)
s = 44: (0, 98, 14, 42, 42, 86, 79, 21, 14, 25, 150, 0)
s = 45: (0, 88, 14, 45, 25, 50, 70, 22, 18, 41, 114, 0)
s = 46: (0, 63, 12, 29, 17, 64, 64, 28, 20, 32, 244, 0)
s = 47: (0, 56, 9, 52, 29, 46, 43, 18, 15, 37, 146, 0)
s = 48: (0, 120, 11, 20, 24, 30, 55, 29, 36, 23, 180, 0)
s = 49: (0, 106, 8, 32, 18, 59, 30, 20, 20, 41, 289, 0)
s = 50: (0, 89, 11, 30, 18, 42, 33, 24, 17, 18, 114, 0)
s = 51: (0, 76, 12, 31, 16, 76, 33, 15, 27, 26, 110, 0)
s = 52: (0, 55, 16, 32, 20, 46, 34, 23, 14, 16, 124, 0)
s = 53: (0, 78, 12, 25, 22, 34, 69, 24, 16, 35, 101, 0)
s = 54: (0, 97, 9, 28, 31, 56, 41, 15, 36, 25, 112, 0)
s = 55: (0, 95, 13, 39, 23, 84, 42, 17, 24, 30, 275, 0)
s = 56: (0, 80, 14, 50, 27, 72, 39, 23, 26, 26, 138, 0)
s = 57: (0, 77, 17, 34, 30, 69, 34, 16, 19, 33, 177, 0)
s = 58: (0, 98, 15, 21, 21, 70, 51, 25, 17, 20, 131, 0)
s = 59: (0, 85, 14, 45, 30, 54, 54, 37, 19, 32, 133, 0)
s = 60: (0, 62, 10, 25, 40, 45, 34, 37, 28, 27, 140, 0)
s = 61: (0, 135, 20, 42, 17, 47, 42, 22, 22, 22, 139, 0)
s = 62: (0, 98, 8, 32, 23, 44, 49, 27, 21, 31, 132, 0)
s = 63: (0, 91, 14, 31, 24, 51, 38, 17, 17, 29, 181, 0)
s = 64: (0, 89, 10, 47, 25, 46, 39, 26, 16, 25, 207, 0)
s = 65: (0, 113, 16, 47, 26, 81, 45, 44, 21, 36, 123, 0)
s = 66: (0, 95, 15, 23, 31, 55, 80, 27, 22, 25, 143, 0)
s = 67: (0, 117, 19, 31, 19, 73, 38, 27, 23, 24, 190, 0)
s = 68: (0, 97, 9, 52, 23, 56, 48, 40, 16, 28, 148, 0)
s = 69: (0, 95, 15, 40, 16, 62, 35, 32, 38, 32, 199, 0)
s = 70: (0, 82, 20, 49, 27, 71, 58, 28, 24, 22, 139, 0)
s = 71: (0, 91, 10, 45, 26, 54, 52, 18, 14, 37, 138, 0)
s = 72: (0, 94, 24, 37, 18, 72, 38, 14, 16, 27, 158, 0)
s = 73: (0, 80, 11, 22, 23, 79, 40, 20, 26, 32, 165, 0)
s = 74: (0, 128, 14, 20, 19, 53, 58, 33, 35, 49, 130, 0)
s = 75: (0, 69, 20, 38, 26, 70, 56, 29, 15, 23, 112, 0)
s = 76: (0, 136, 20, 30, 35, 40, 49, 27, 35, 31, 202, 0)
s = 77: (0, 111, 27, 26, 36, 38, 70, 22, 16, 22, 134, 0)
s = 78: (0, 105, 10, 31, 19, 39, 32, 25, 28, 28, 182, 0)
s = 79: (0, 149, 10, 24, 36, 38, 51, 21, 23, 15, 176, 0)
s = 80: (0, 86, 11, 40, 23, 69, 52, 20, 20, 15, 182, 0)
s = 81: (0, 75, 15, 33, 17, 84, 48, 21, 23, 23, 132, 0)
s = 82: (0, 109, 12, 32, 15, 50, 26, 23, 16, 21, 120, 0)
s = 83: (0, 100, 21, 26, 25, 52, 58, 25, 32, 40, 115, 0)
s = 84: (0, 121, 18, 45, 30, 41, 64, 28, 18, 39, 116, 0)
s = 85: (0, 119, 14, 26, 18, 78, 37, 29, 32, 30, 117, 0)
s = 86: (0, 141, 13, 28, 24, 45, 38, 17, 26, 24, 221, 0)
s = 87: (0, 96, 12, 44, 25, 44, 67, 20, 27, 42, 194, 0)
s = 88: (0, 104, 9, 35, 28, 53, 27, 28, 17, 35, 111, 0)
s = 89: (0, 80, 12, 31, 24, 48, 57, 19, 32, 19, 224, 0)
s = 90: (0, 112, 10, 26, 40, 33, 62, 28, 19, 34, 147, 0)
s = 91: (0, 64, 12, 28, 25, 46, 66, 38, 20, 43, 211, 0)
s = 92: (0, 81, 14, 35, 24, 39, 59, 15, 30, 32, 207, 0)
s = 93: (0, 87, 11, 31, 46, 45, 29, 41, 30, 25, 98, 0)
s = 94: (0, 67, 10, 27, 17, 37, 43, 27, 30, 35, 149, 0)
s = 95: (0, 77, 26, 45, 32, 32, 65, 20, 27, 39, 141, 0)
s = 96: (0, 127, 14, 49, 41, 43, 66, 24, 27, 23, 134, 0)
s = 97: (0, 90, 14, 40, 20, 42, 40, 18, 21, 32, 105, 0)
s = 98: (0, 81, 12, 28, 18, 66, 43, 22, 19, 22, 147, 0)
s = 99: (0, 125, 19, 37, 31, 58, 38, 16, 20, 18, 210, 0)
s = 100: (0, 78, 14, 21, 21, 70, 28, 31, 29, 18, 245, 0)
s = 101: (0, 60, 20, 39, 21, 79, 60, 20, 35, 25, 223, 0)
s = 102: (0, 151, 14, 29, 28, 48, 40, 20, 20, 33, 229, 0)
s = 103: (0, 116, 14, 25, 48, 57, 61, 16, 19, 46, 97, 0)
s = 104: (0, 72, 13, 26, 26, 59, 39, 31, 16, 26, 128, 0)
s = 105: (0, 104, 12, 32, 20, 41, 44, 39, 15, 25, 157, 0)
s = 106: (0, 97, 8, 26, 35, 69, 67, 16, 31, 29, 105, 0)
s = 107: (0, 100, 14, 52, 21, 29, 49, 15, 15, 25, 172, 0)
s = 108: (0, 105, 14, 23, 17, 88, 35, 26, 30, 42, 247, 0)
s = 109: (0, 76, 22, 32, 29, 42, 52, 29, 37, 47, 110, 0)
s = 110: (0, 110, 13, 23, 19, 51, 51, 36, 40, 18, 139, 0)
s = 111: (0, 123, 9, 20, 15, 39, 64, 18, 19, 18, 203, 0)
s = 112: (0, 59, 19, 38, 27, 71, 34, 20, 36, 26, 129, 0)
s = 113: (0, 100, 18, 28, 33, 58, 28, 29, 20, 27, 166, 0)
s = 114: (0, 57, 12, 55, 14, 51, 39, 23, 28, 19, 128, 0)
s = 115: (0, 87, 21, 31, 19, 50, 74, 20, 30, 35, 230, 0)
s = 116: (0, 70, 12, 24, 28, 50, 40, 21, 15, 18, 154, 0)
s = 117: (0, 101, 11, 26, 34, 53, 53, 21, 17, 28, 191, 0)
s = 118: (0, 83, 22, 25, 23, 86, 42, 22, 14, 20, 141, 0)
s = 119: (0, 142, 26, 30, 30, 41, 39, 21, 35, 27, 179, 0)
s = 120: (0, 84, 16, 50, 27, 46, 36, 14, 22, 17, 135, 0)
s = 121: (0, 65, 18, 33, 27, 49, 53, 23, 20, 44, 123, 0)
s = 122: (0, 105, 21, 38, 15, 50, 48, 22, 27, 33, 219, 0)
s = 123: (0, 103, 9, 32, 21, 57, 45, 31, 30, 23, 200, 0)
s = 124: (0, 55, 16, 38, 17, 46, 48, 29, 34, 17, 167, 0)
s = 125: (0, 98, 21, 24, 41, 55, 43, 21, 15, 24, 159, 0)
s = 126: (0, 49, 17, 33, 28, 37, 63, 22, 33, 33, 237, 0)
s = 127: (0, 75, 11, 31, 37, 32, 31, 17, 32, 38, 189, 0)
s = 128: (0, 121, 13, 24, 22, 33, 76, 22, 37, 23, 135, 0)
s = 129: (0, 71, 21, 35, 23, 54, 49, 28, 24, 28, 132, 0)
s = 130: (0, 119, 16, 31, 30, 86, 39, 21, 12, 17, 150, 0)
s = 131: (0, 78, 27, 39, 32, 85, 36, 23, 25, 22, 98, 0)
s = 132: (0, 80, 15, 28, 25, 70, 74, 25, 25, 28, 161, 0)
s = 133: (0, 151, 12, 35, 44, 49, 47, 26, 13, 25, 132, 0)
s = 134: (0, 89, 12, 24, 35, 45, 35, 35, 23, 25, 133, 0)
s = 135: (0, 62, 14, 48, 30, 57, 54, 36, 18, 39, 117, 0)
s = 136: (0, 73, 10, 36, 15, 38, 40, 46, 21, 22, 174, 0)
s = 137: (0, 139, 15, 30, 19, 32, 49, 26, 20, 39, 169, 0)
s = 138: (0, 88, 12, 29, 18, 33, 58, 30, 16, 30, 213, 0)
s = 139: (0, 93, 20, 24, 27, 54, 68, 23, 28, 23, 178, 0)
s = 140: (0, 87, 17, 42, 23, 56, 40, 33, 25, 37, 191, 0)
s = 141: (0, 126, 18, 33, 21, 43, 41, 35, 30, 22, 174, 0)
s = 142: (0, 89, 14, 38, 19, 30, 36, 25, 24, 52, 134, 0)
s = 143: (0, 92, 20, 32, 29, 67, 29, 36, 20, 22, 176, 0)
s = 144: (0, 58, 13, 25, 36, 71, 76, 18, 33, 27, 161, 0)
s = 145: (0, 132, 18, 27, 24, 48, 67, 27, 25, 20, 192, 0)
s = 146: (0, 88, 22, 36, 28, 46, 65, 34, 19, 24, 164, 0)
s = 147: (0, 91, 17, 24, 38, 48, 63, 28, 15, 17, 197, 0)
s = 148: (0, 54, 12, 50, 25, 65, 47, 27, 29, 18, 145, 0)
s = 149: (0, 63, 20, 38, 29, 48, 27, 13, 23, 30, 213, 0)
s = 150: (0, 90, 13, 56, 24, 45, 39, 27, 20, 22, 130, 0)
s = 151: (0, 100, 15, 42, 18, 45, 43, 34, 17, 19, 191, 0)
s = 152: (0, 73, 19, 44, 23, 59, 43, 22, 22, 25, 105, 0)
s = 153: (0, 96, 15, 31, 25, 48, 28, 25, 14, 34, 194, 0)
s = 154: (0, 133, 11, 59, 37, 78, 68, 14, 19, 18, 168, 0)
s = 155: (0, 127, 24, 20, 19, 71, 63, 17, 27, 16, 149, 0)
s = 156: (0, 75, 12, 35, 22, 50, 39, 43, 15, 42, 191, 0)
s = 157: (0, 74, 17, 28, 20, 35, 39, 36, 27, 38, 192, 0)
s = 158: (0, 81, 16, 39, 34, 76, 56, 26, 17, 49, 140, 0)
s = 159: (0, 91, 17, 23, 27, 60, 79, 27, 26, 33, 139, 0)
s = 160: (0, 51, 14, 33, 22, 32, 44, 31, 14, 32, 99, 0)
s = 161: (0, 119, 15, 24, 35, 73, 39, 27, 16, 24, 225, 0)
s = 162: (0, 138, 12, 30, 19, 29, 52, 21, 30, 28, 237, 0)
s = 163: (0, 122, 21, 54, 28, 49, 50, 22, 19, 24, 226, 0)
s = 164: (0, 53, 16, 38, 16, 39, 51, 25, 31, 21, 160, 0)
s = 165: (0, 88, 20, 35, 18, 54, 46, 31, 20, 46, 148, 0)
s = 166: (0, 122, 15, 40, 26, 57, 32, 23, 25, 21, 191, 0)
s = 167: (0, 123, 21, 48, 30, 57, 66, 20, 23, 19, 203, 0)
s = 168: (0, 65, 8, 38, 27, 35, 54, 19, 23, 18, 172, 0)
s = 169: (0, 116, 18, 38, 25, 56, 65, 28, 15, 29, 161, 0)
s = 170: (0, 128, 9, 33, 34, 71, 61, 25, 17, 24, 182, 0)
s = 171: (0, 65, 16, 22, 22, 52, 58, 25, 36, 16, 153, 0)
s = 172: (0, 97, 22, 61, 20, 104, 49, 36, 21, 29, 222, 0)
s = 173: (0, 110, 14, 27, 37, 73, 52, 23, 24, 21, 146, 0)
s = 174: (0, 65, 13, 42, 23, 48, 56, 27, 22, 25, 148, 0)
s = 175: (0, 66, 9, 47, 19, 46, 27, 37, 18, 25, 251, 0)
s = 176: (0, 103, 9, 30, 26, 37, 56, 24, 31, 18, 246, 0)
s = 177: (0, 74, 12, 49, 24, 67, 31, 22, 20, 16, 130, 0)
s = 178: (0, 106, 23, 36, 28, 46, 43, 29, 28, 31, 116, 0)
s = 179: (0, 96, 23, 45, 18, 55, 44, 16, 21, 29, 158, 0)
s = 180: (0, 106, 18, 47, 28, 76, 69, 28, 14, 37, 109, 0)
s = 181: (0, 128, 13, 34, 17, 31, 48, 20, 27, 21, 108, 0)
s = 182: (0, 116, 10, 27, 16, 52, 49, 46, 18, 23, 131, 0)
s = 183: (0, 104, 20, 46, 22, 37, 27, 29, 24, 31, 195, 0)
s = 184: (0, 56, 12, 23, 20, 66, 59, 20, 18, 33, 227, 0)
s = 185: (0, 89, 24, 39, 29, 55, 58, 26, 19, 25, 278, 0)
s = 186: (0, 97, 14, 33, 29, 68, 59, 20, 24, 28, 123, 0)
s = 187: (0, 124, 10, 27, 33, 35, 69, 18, 20, 18, 189, 0)
s = 188: (0, 114, 16, 36, 16, 34, 37, 24, 21, 36, 174, 0)
s = 189: (0, 147, 21, 56, 22, 32, 62, 20, 25, 25, 162, 0)
s = 190: (0, 87, 11, 35, 35, 47, 33, 18, 17, 20, 185, 0)
s = 191: (0, 86, 9, 42, 33, 38, 34, 31, 24, 28, 131, 0)
s = 192: (0, 111, 22, 42, 18, 59, 37, 36, 25, 32, 224, 0)
s = 193: (0, 85, 9, 20, 23, 56, 40, 30, 38, 30, 220, 0)
s = 194: (0, 61, 21, 36, 28, 39, 88, 24, 15, 28, 267, 0)
s = 195: (0, 149, 12, 43, 32, 83, 46, 22, 23, 23, 252, 0)
s = 196: (0, 83, 13, 25, 24, 76, 37, 18, 24, 44, 110, 0)
s = 197: (0, 83, 17, 47, 34, 40, 47, 33, 28, 24, 177, 0)
s = 198: (0, 138, 9, 40, 23, 66, 79, 24, 21, 44, 131, 0)
s = 199: (0, 80, 10, 39, 24, 45, 34, 29, 16, 25, 165, 0)
s = 200: (0, 123, 17, 23, 24, 32, 41, 23, 20, 36, 165, 0)
************************************************************************
ES/LS-VALUES:
jobnr.   ES(i)    LS(i)
------------------------------------------------------------------------
  0        0        0
  1        0       73
  2        0       51
  3        0       53
  4        1       66
  5        1       53
  6        6       59
  7        5       77
  8       14       81
  9       14       79
 10       14       68
 11       28       83
************************************************************************
BIG-M-VALUES:
M1 = 28, M2 = 300
************************************************************************
